p cnf 144 1
144 0
w 1 0.189365
w 2 1 1
w 2 -1 0
w 3 2 1
w 3 -2 0
w 4 3 1
w 4 -3 0
w 5 4 0.48247
w 5 -4 0.615459
w 6 5 0
w 6 -5 1
w 7 6 0
w 7 -6 1
w 8 7 0.240364
w 8 -7 0.0859234
w 9 8 0.207451
w 9 -8 0.132308
w 10 9 0
w 10 -9 1
w 11 10 1
w 11 -10 0
w 12 11 0
w 12 -11 1
w 13 1 0.785078
w 13 -1 0.410312
w 14 13 2 0.678395
w 14 13 -2 0.599677
w 14 -13 2 0.387989
w 14 -13 -2 0.399786
w 15 14 3 0
w 15 14 -3 0
w 15 -14 3 1
w 15 -14 -3 0
w 16 15 4 1
w 16 15 -4 1
w 16 -15 4 0
w 16 -15 -4 0
w 17 16 5 1
w 17 16 -5 1
w 17 -16 5 0
w 17 -16 -5 1
w 18 17 6 1
w 18 17 -6 0
w 18 -17 6 1
w 18 -17 -6 1
w 19 18 7 1
w 19 18 -7 0
w 19 -18 7 1
w 19 -18 -7 1
w 20 19 8 1
w 20 19 -8 1
w 20 -19 8 0
w 20 -19 -8 0
w 21 20 9 1
w 21 20 -9 1
w 21 -20 9 1
w 21 -20 -9 0
w 22 21 10 1
w 22 21 -10 0
w 22 -21 10 0
w 22 -21 -10 1
w 23 22 11 0.775603
w 23 22 -11 0.0861658
w 23 -22 11 0.392003
w 23 -22 -11 0.0473273
w 24 23 12 0
w 24 23 -12 1
w 24 -23 12 1
w 24 -23 -12 0
w 25 13 1
w 25 -13 0
w 26 25 14 1
w 26 25 -14 1
w 26 -25 14 0
w 26 -25 -14 0
w 27 26 15 0
w 27 26 -15 0
w 27 -26 15 0
w 27 -26 -15 1
w 28 27 16 1
w 28 27 -16 0
w 28 -27 16 0
w 28 -27 -16 0
w 29 28 17 0
w 29 28 -17 1
w 29 -28 17 0
w 29 -28 -17 0
w 30 29 18 0
w 30 29 -18 1
w 30 -29 18 1
w 30 -29 -18 1
w 31 30 19 1
w 31 30 -19 1
w 31 -30 19 1
w 31 -30 -19 0
w 32 31 20 1
w 32 31 -20 0
w 32 -31 20 1
w 32 -31 -20 1
w 33 32 21 0.088322
w 33 32 -21 0.126906
w 33 -32 21 0.896079
w 33 -32 -21 0.120829
w 34 33 22 0.846395
w 34 33 -22 0.820459
w 34 -33 22 0.950142
w 34 -33 -22 0.00442007
w 35 34 23 1
w 35 34 -23 1
w 35 -34 23 0
w 35 -34 -23 1
w 36 35 24 0
w 36 35 -24 1
w 36 -35 24 1
w 36 -35 -24 1
w 37 25 0.812446
w 37 -25 0.781749
w 38 37 26 0
w 38 37 -26 0
w 38 -37 26 1
w 38 -37 -26 0
w 39 38 27 0
w 39 38 -27 1
w 39 -38 27 1
w 39 -38 -27 0
w 40 39 28 1
w 40 39 -28 1
w 40 -39 28 1
w 40 -39 -28 0
w 41 40 29 0.193771
w 41 40 -29 0.993436
w 41 -40 29 0.681191
w 41 -40 -29 0.946018
w 42 41 30 0
w 42 41 -30 0
w 42 -41 30 1
w 42 -41 -30 0
w 43 42 31 0
w 43 42 -31 1
w 43 -42 31 0
w 43 -42 -31 0
w 44 43 32 0
w 44 43 -32 1
w 44 -43 32 0
w 44 -43 -32 0
w 45 44 33 0
w 45 44 -33 0
w 45 -44 33 0
w 45 -44 -33 1
w 46 45 34 0
w 46 45 -34 0
w 46 -45 34 1
w 46 -45 -34 1
w 47 46 35 1
w 47 46 -35 0
w 47 -46 35 0
w 47 -46 -35 0
w 48 47 36 0
w 48 47 -36 0
w 48 -47 36 0
w 48 -47 -36 1
w 49 37 1
w 49 -37 0
w 50 49 38 0
w 50 49 -38 1
w 50 -49 38 0
w 50 -49 -38 0
w 51 50 39 1
w 51 50 -39 1
w 51 -50 39 0
w 51 -50 -39 0
w 52 51 40 0.88172
w 52 51 -40 0.411796
w 52 -51 40 0.385532
w 52 -51 -40 0.906871
w 53 52 41 0
w 53 52 -41 0
w 53 -52 41 0
w 53 -52 -41 1
w 54 53 42 0
w 54 53 -42 1
w 54 -53 42 0
w 54 -53 -42 0
w 55 54 43 0.760817
w 55 54 -43 0.0492909
w 55 -54 43 0.913771
w 55 -54 -43 0.079485
w 56 55 44 0
w 56 55 -44 1
w 56 -55 44 1
w 56 -55 -44 1
w 57 56 45 1
w 57 56 -45 1
w 57 -56 45 0
w 57 -56 -45 1
w 58 57 46 0.871558
w 58 57 -46 0.00800515
w 58 -57 46 0.675768
w 58 -57 -46 0.320364
w 59 58 47 0.47973
w 59 58 -47 0.99553
w 59 -58 47 0.0378309
w 59 -58 -47 0.00286733
w 60 59 48 0
w 60 59 -48 1
w 60 -59 48 1
w 60 -59 -48 1
w 61 49 0
w 61 -49 1
w 62 61 50 0.306829
w 62 61 -50 0.589061
w 62 -61 50 0.983013
w 62 -61 -50 0.604748
w 63 62 51 0.936147
w 63 62 -51 0.628311
w 63 -62 51 0.602537
w 63 -62 -51 0.797214
w 64 63 52 1
w 64 63 -52 0
w 64 -63 52 1
w 64 -63 -52 1
w 65 64 53 0
w 65 64 -53 1
w 65 -64 53 1
w 65 -64 -53 1
w 66 65 54 1
w 66 65 -54 0
w 66 -65 54 0
w 66 -65 -54 0
w 67 66 55 1
w 67 66 -55 1
w 67 -66 55 0
w 67 -66 -55 1
w 68 67 56 0
w 68 67 -56 0
w 68 -67 56 0
w 68 -67 -56 1
w 69 68 57 1
w 69 68 -57 1
w 69 -68 57 1
w 69 -68 -57 0
w 70 69 58 1
w 70 69 -58 1
w 70 -69 58 0
w 70 -69 -58 0
w 71 70 59 0
w 71 70 -59 0
w 71 -70 59 0
w 71 -70 -59 1
w 72 71 60 0
w 72 71 -60 0
w 72 -71 60 1
w 72 -71 -60 0
w 73 61 0.0460841
w 73 -61 0.899658
w 74 73 62 0.102392
w 74 73 -62 0.394073
w 74 -73 62 0.955592
w 74 -73 -62 0.925373
w 75 74 63 0
w 75 74 -63 0
w 75 -74 63 1
w 75 -74 -63 1
w 76 75 64 0
w 76 75 -64 0
w 76 -75 64 1
w 76 -75 -64 1
w 77 76 65 1
w 77 76 -65 1
w 77 -76 65 0
w 77 -76 -65 1
w 78 77 66 0.195451
w 78 77 -66 0.0822189
w 78 -77 66 0.0481206
w 78 -77 -66 0.861681
w 79 78 67 1
w 79 78 -67 1
w 79 -78 67 0
w 79 -78 -67 0
w 80 79 68 0.882479
w 80 79 -68 0.87356
w 80 -79 68 0.162219
w 80 -79 -68 0.838071
w 81 80 69 0.357535
w 81 80 -69 0.496712
w 81 -80 69 0.530301
w 81 -80 -69 0.958844
w 82 81 70 0
w 82 81 -70 0
w 82 -81 70 1
w 82 -81 -70 1
w 83 82 71 0.72394
w 83 82 -71 0.988581
w 83 -82 71 0.799437
w 83 -82 -71 0.502912
w 84 83 72 1
w 84 83 -72 1
w 84 -83 72 0
w 84 -83 -72 0
w 85 73 0
w 85 -73 1
w 86 85 74 0
w 86 85 -74 0
w 86 -85 74 1
w 86 -85 -74 1
w 87 86 75 0
w 87 86 -75 0
w 87 -86 75 0
w 87 -86 -75 1
w 88 87 76 0.360512
w 88 87 -76 0.675278
w 88 -87 76 0.58696
w 88 -87 -76 0.364321
w 89 88 77 0
w 89 88 -77 0
w 89 -88 77 1
w 89 -88 -77 0
w 90 89 78 0.92104
w 90 89 -78 0.716802
w 90 -89 78 0.462374
w 90 -89 -78 0.619403
w 91 90 79 0
w 91 90 -79 1
w 91 -90 79 0
w 91 -90 -79 0
w 92 91 80 0
w 92 91 -80 1
w 92 -91 80 1
w 92 -91 -80 0
w 93 92 81 1
w 93 92 -81 0
w 93 -92 81 0
w 93 -92 -81 0
w 94 93 82 1
w 94 93 -82 0
w 94 -93 82 1
w 94 -93 -82 0
w 95 94 83 0.460709
w 95 94 -83 0.635422
w 95 -94 83 0.874595
w 95 -94 -83 0.878838
w 96 95 84 0
w 96 95 -84 1
w 96 -95 84 0
w 96 -95 -84 0
w 97 85 0
w 97 -85 1
w 98 97 86 0
w 98 97 -86 0
w 98 -97 86 0
w 98 -97 -86 1
w 99 98 87 0
w 99 98 -87 1
w 99 -98 87 0
w 99 -98 -87 0
w 100 99 88 0
w 100 99 -88 0
w 100 -99 88 1
w 100 -99 -88 0
w 101 100 89 1
w 101 100 -89 0
w 101 -100 89 1
w 101 -100 -89 0
w 102 101 90 0
w 102 101 -90 0
w 102 -101 90 1
w 102 -101 -90 0
w 103 102 91 1
w 103 102 -91 0
w 103 -102 91 0
w 103 -102 -91 1
w 104 103 92 0
w 104 103 -92 1
w 104 -103 92 1
w 104 -103 -92 0
w 105 104 93 1
w 105 104 -93 0
w 105 -104 93 0
w 105 -104 -93 1
w 106 105 94 0.00162212
w 106 105 -94 0.742831
w 106 -105 94 0.834292
w 106 -105 -94 0.46403
w 107 106 95 1
w 107 106 -95 0
w 107 -106 95 0
w 107 -106 -95 0
w 108 107 96 0
w 108 107 -96 1
w 108 -107 96 1
w 108 -107 -96 1
w 109 97 0
w 109 -97 1
w 110 109 98 1
w 110 109 -98 0
w 110 -109 98 0
w 110 -109 -98 0
w 111 110 99 0
w 111 110 -99 0
w 111 -110 99 1
w 111 -110 -99 1
w 112 111 100 0
w 112 111 -100 1
w 112 -111 100 0
w 112 -111 -100 1
w 113 112 101 0.304599
w 113 112 -101 0.176003
w 113 -112 101 0.277414
w 113 -112 -101 0.749083
w 114 113 102 0.489508
w 114 113 -102 0.628762
w 114 -113 102 0.251558
w 114 -113 -102 0.19887
w 115 114 103 0.202629
w 115 114 -103 0.410498
w 115 -114 103 0.041113
w 115 -114 -103 0.522054
w 116 115 104 0.483405
w 116 115 -104 0.629113
w 116 -115 104 0.374002
w 116 -115 -104 0.454943
w 117 116 105 0
w 117 116 -105 0
w 117 -116 105 0
w 117 -116 -105 1
w 118 117 106 0.899964
w 118 117 -106 0.320054
w 118 -117 106 0.119101
w 118 -117 -106 0.37027
w 119 118 107 0
w 119 118 -107 0
w 119 -118 107 1
w 119 -118 -107 1
w 120 119 108 0
w 120 119 -108 0
w 120 -119 108 0
w 120 -119 -108 1
w 121 109 1
w 121 -109 0
w 122 121 110 1
w 122 121 -110 0
w 122 -121 110 0
w 122 -121 -110 0
w 123 122 111 0
w 123 122 -111 0
w 123 -122 111 0
w 123 -122 -111 1
w 124 123 112 1
w 124 123 -112 1
w 124 -123 112 0
w 124 -123 -112 1
w 125 124 113 0.190635
w 125 124 -113 0.680227
w 125 -124 113 0.284144
w 125 -124 -113 0.222663
w 126 125 114 0
w 126 125 -114 0
w 126 -125 114 1
w 126 -125 -114 1
w 127 126 115 0
w 127 126 -115 1
w 127 -126 115 1
w 127 -126 -115 1
w 128 127 116 0
w 128 127 -116 0
w 128 -127 116 1
w 128 -127 -116 0
w 129 128 117 0
w 129 128 -117 1
w 129 -128 117 1
w 129 -128 -117 1
w 130 129 118 0.340942
w 130 129 -118 0.652033
w 130 -129 118 0.835666
w 130 -129 -118 0.531577
w 131 130 119 1
w 131 130 -119 1
w 131 -130 119 1
w 131 -130 -119 0
w 132 131 120 0
w 132 131 -120 1
w 132 -131 120 1
w 132 -131 -120 1
w 133 121 0
w 133 -121 1
w 134 133 122 0
w 134 133 -122 1
w 134 -133 122 0
w 134 -133 -122 0
w 135 134 123 1
w 135 134 -123 1
w 135 -134 123 0
w 135 -134 -123 0
w 136 135 124 0
w 136 135 -124 0
w 136 -135 124 1
w 136 -135 -124 1
w 137 136 125 1
w 137 136 -125 0
w 137 -136 125 0
w 137 -136 -125 0
w 138 137 126 1
w 138 137 -126 0
w 138 -137 126 1
w 138 -137 -126 1
w 139 138 127 1
w 139 138 -127 0
w 139 -138 127 0
w 139 -138 -127 1
w 140 139 128 1
w 140 139 -128 0
w 140 -139 128 0
w 140 -139 -128 0
w 141 140 129 1
w 141 140 -129 1
w 141 -140 129 0
w 141 -140 -129 1
w 142 141 130 0
w 142 141 -130 1
w 142 -141 130 1
w 142 -141 -130 1
w 143 142 131 0
w 143 142 -131 0
w 143 -142 131 0
w 143 -142 -131 1
w 144 143 132 0.857226
w 144 143 -132 0.210242
w 144 -143 132 0.957629
w 144 -143 -132 0.601567